5969487001322536517503,1,1,2,015,2,1,2,04,15,1,2,012,9,1,2,011,11,1,2,011,6,1,2,07,11,1,2,013,15,1,2,010,15,1,2,01,15,1,2,06,2,1,2,06,15,1,2,08,15,1,2,04,15,1,2,05,6,1,2,04,10,1,2,02,4,1,2,05,7,1,2,013,13,1,2,03,2,1,2,014,9,1,2,09,15,1,2,015,14,1,2,09,15,1,2,011,13,1,2,05,11,1,2,06,14,1,2,06,12,1,2,010,14,1,2,09,6,1,2,014,5,1,2,03,8,1,2,07,6,1,2,02,4,1,2,05,6,1,2,03,2,1,2,013,8,1,2,08,13,1,2,08,10,1,2,01,4,1,2,02,10,1,2,07,15,1,2,07,15,1,2,014,9,1,2,06,15,1,2,04,1,1,2,09,13,1,2,01,3,1,2,012,15,1,2,014,1,1,2,0